100
120
100
99
98
97
96
96
95
94
94
94
93
93
92
92
91
91
91
90
90
90
89
86
86
85
84
84
83
82
82
77
77
77
77
77
76
75
75
74
73
72
71
71
70
70
70
70
69
69
68
67
67
66
65
64
64
63
61
60
58
58
58
57
57
57
54
54
54
53
52
52
52
51
51
51
48
46
46
46
45
44
44
44
43
43
43
41
39
38
38
36
36
35
35
34
32
31
31
31
30
30
